(declare-fun e () String)
(declare-fun c () String)
(declare-fun g () String)
(declare-fun b () String)
(declare-fun d () String)
(declare-fun a () String)
(declare-fun h () String)
(assert (= (str.++ "c" b) (str.++ c "b" h c h)))
(assert (= "h" "ba"))
(assert (= (str.++ "af" g b e a) (str.++ d "fe")))

(check-sat)
